(set-logic QF_S)
(declare-fun var0 () String)
(assert (str.in.re var0 (re.++ (re.* (re.+ (str.to.re "000"))) (re.++ (re.+ (re.+ (str.to.re "111"))) (re.++ (re.* (re.union (str.to.re "22") (str.to.re "333"))) (re.++ (re.* (re.* (str.to.re "4"))) (re.++ (re.* (re.+ (str.to.re "55"))) (re.++ (re.* (re.* (str.to.re "666"))) (re.++ (re.* (re.+ (str.to.re "777"))) (re.++ (re.* (re.union (str.to.re "888") (str.to.re "999"))) (re.++ (re.+ (re.+ (str.to.re "aa"))) (re.++ (re.union (re.union (str.to.re "bb") (str.to.re "c")) (re.union (str.to.re "dd") (str.to.re "e"))) (re.++ (re.* (re.+ (str.to.re "f"))) (re.++ (re.+ (re.* (str.to.re "gg"))) (re.++ (re.* (re.* (str.to.re "hhh"))) (re.++ (re.* (re.* (str.to.re "i"))) (re.++ (re.* (re.+ (str.to.re "j"))) (re.++ (re.* (re.* (str.to.re "k"))) (re.++ (re.* (re.union (str.to.re "ll") (str.to.re "mm"))) (re.++ (re.+ (re.* (str.to.re "nn"))) (re.++ (re.* (re.+ (str.to.re "oo"))) (re.++ (re.union (re.union (str.to.re "pp") (str.to.re "q")) (re.union (str.to.re "r") (str.to.re "sss"))) (re.++ (re.union (re.* (str.to.re "t")) (re.* (str.to.re "u"))) (re.++ (re.* (re.union (str.to.re "vv") (str.to.re "w"))) (re.++ (re.union (re.* (str.to.re "x")) (re.* (str.to.re "yyy"))) (re.++ (re.union (re.+ (str.to.re "zzz")) (re.+ (str.to.re "A"))) (re.++ (re.union (re.union (str.to.re "BB") (str.to.re "CC")) (re.union (str.to.re "DD") (str.to.re "EE"))) (re.++ (re.* (re.union (str.to.re "F") (str.to.re "G"))) (re.++ (re.* (re.+ (str.to.re "HHH"))) (re.++ (re.+ (re.* (str.to.re "I"))) (re.++ (re.+ (re.* (str.to.re "JJ"))) (re.++ (re.* (re.union (str.to.re "KK") (str.to.re "LL"))) (re.++ (re.union (re.+ (str.to.re "MM")) (re.+ (str.to.re "NNN"))) (re.++ (re.* (re.* (str.to.re "O"))) (re.++ (re.+ (re.union (str.to.re "PPP") (str.to.re "Q"))) (re.++ (re.* (re.* (str.to.re "R"))) (re.++ (re.+ (re.* (str.to.re "SS"))) (re.++ (re.union (re.+ (str.to.re "TT")) (re.+ (str.to.re "UUU"))) (re.++ (re.union (re.* (str.to.re "VV")) (re.* (str.to.re "WWW"))) (re.++ (re.union (re.* (str.to.re "XX")) (re.* (str.to.re "YYY"))) (re.++ (re.union (re.union (str.to.re "ZZZ") (str.to.re "!")) (re.union (str.to.re """") (str.to.re "##"))) (re.++ (re.+ (re.union (str.to.re "$$$") (str.to.re "%"))) (re.++ (re.* (re.+ (str.to.re "&&"))) (re.++ (re.* (re.+ (str.to.re "'''"))) (re.++ (re.+ (re.+ (str.to.re "("))) (re.++ (re.union (re.+ (str.to.re ")))")) (re.+ (str.to.re "**"))) (re.++ (re.* (re.+ (str.to.re "+"))) (re.++ (re.* (re.* (str.to.re ",,"))) (re.++ (re.union (re.+ (str.to.re "--")) (re.+ (str.to.re "."))) (re.++ (re.+ (re.union (str.to.re "//") (str.to.re ":"))) (re.++ (re.* (re.+ (str.to.re ";;;"))) (re.++ (re.+ (re.union (str.to.re "<<<") (str.to.re "==="))) (re.++ (re.* (re.union (str.to.re ">>") (str.to.re "??"))) (re.++ (re.* (re.+ (str.to.re "@@"))) (re.++ (re.* (re.+ (str.to.re "["))) (re.++ (re.union (re.union (str.to.re "\\\\") (str.to.re "]")) (re.union (str.to.re "^") (str.to.re "_"))) (re.++ (re.* (re.union (str.to.re "```") (str.to.re "{"))) (re.++ (re.* (re.* (str.to.re "|||"))) (re.++ (re.+ (re.* (str.to.re "}}"))) (re.++ (re.union (re.union (str.to.re "~~~") (str.to.re "000")) (re.union (str.to.re "11") (str.to.re "2"))) (re.++ (re.* (re.union (str.to.re "333") (str.to.re "44"))) (re.++ (re.union (re.* (str.to.re "55")) (re.* (str.to.re "6"))) (re.++ (re.union (re.+ (str.to.re "777")) (re.+ (str.to.re "888"))) (re.++ (re.+ (re.+ (str.to.re "9"))) (re.++ (re.+ (re.* (str.to.re "aa"))) (re.++ (re.* (re.* (str.to.re "b"))) (re.++ (re.union (re.* (str.to.re "ccc")) (re.* (str.to.re "d"))) (re.++ (re.+ (re.+ (str.to.re "eee"))) (re.++ (re.union (re.* (str.to.re "f")) (re.* (str.to.re "ggg"))) (re.++ (re.+ (re.union (str.to.re "h") (str.to.re "iii"))) (re.++ (re.* (re.union (str.to.re "jj") (str.to.re "kk"))) (re.++ (re.union (re.* (str.to.re "l")) (re.* (str.to.re "mm"))) (re.++ (re.union (re.* (str.to.re "n")) (re.* (str.to.re "ooo"))) (re.++ (re.+ (re.+ (str.to.re "p"))) (re.++ (re.+ (re.* (str.to.re "qqq"))) (re.++ (re.union (re.union (str.to.re "rrr") (str.to.re "sss")) (re.union (str.to.re "t") (str.to.re "uu"))) (re.++ (re.union (re.* (str.to.re "vvv")) (re.* (str.to.re "www"))) (re.++ (re.union (re.union (str.to.re "xxx") (str.to.re "y")) (re.union (str.to.re "zz") (str.to.re "AA"))) (re.++ (re.* (re.union (str.to.re "BBB") (str.to.re "C"))) (re.++ (re.* (re.* (str.to.re "DD"))) (re.++ (re.+ (re.union (str.to.re "EEE") (str.to.re "FFF"))) (re.++ (re.union (re.* (str.to.re "GG")) (re.* (str.to.re "HHH"))) (re.++ (re.* (re.* (str.to.re "II"))) (re.++ (re.* (re.+ (str.to.re "J"))) (re.++ (re.* (re.union (str.to.re "KKK") (str.to.re "LL"))) (re.++ (re.union (re.* (str.to.re "MMM")) (re.* (str.to.re "N"))) (re.++ (re.union (re.* (str.to.re "O")) (re.* (str.to.re "P"))) (re.++ (re.+ (re.* (str.to.re "Q"))) (re.++ (re.+ (re.union (str.to.re "R") (str.to.re "SSS"))) (re.++ (re.* (re.+ (str.to.re "TTT"))) (re.++ (re.* (re.* (str.to.re "UU"))) (re.++ (re.+ (re.union (str.to.re "VVV") (str.to.re "W"))) (re.++ (re.* (re.union (str.to.re "XX") (str.to.re "YYY"))) (re.++ (re.+ (re.+ (str.to.re "ZZ"))) (re.++ (re.+ (re.+ (str.to.re "!!"))) (re.++ (re.+ (re.union (str.to.re """""") (str.to.re "###"))) (re.++ (re.* (re.+ (str.to.re "$$$"))) (re.++ (re.union (re.union (str.to.re "%%") (str.to.re "&")) (re.union (str.to.re "'''") (str.to.re "(("))) (re.++ (re.union (re.union (str.to.re ")") (str.to.re "**")) (re.union (str.to.re "+") (str.to.re ",,,"))) (re.++ (re.+ (re.* (str.to.re "--"))) (re.++ (re.union (re.+ (str.to.re "...")) (re.+ (str.to.re "/"))) (re.++ (re.union (re.+ (str.to.re ":::")) (re.+ (str.to.re ";"))) (re.++ (re.union (re.* (str.to.re "<<")) (re.* (str.to.re "=="))) (re.++ (re.* (re.+ (str.to.re ">>>"))) (re.++ (re.* (re.+ (str.to.re "?"))) (re.++ (re.union (re.* (str.to.re "@@@")) (re.* (str.to.re "["))) (re.++ (re.union (re.* (str.to.re "\\")) (re.* (str.to.re "]]"))) (re.++ (re.union (re.union (str.to.re "^^^") (str.to.re "___")) (re.union (str.to.re "``") (str.to.re "{"))) (re.++ (re.* (re.* (str.to.re "||"))) (re.++ (re.* (re.* (str.to.re "}"))) (re.++ (re.+ (re.+ (str.to.re "~"))) (re.++ (re.+ (re.+ (str.to.re "00"))) (re.++ (re.union (re.union (str.to.re "111") (str.to.re "22")) (re.union (str.to.re "333") (str.to.re "44"))) (re.++ (re.* (re.union (str.to.re "5") (str.to.re "666"))) (re.++ (re.union (re.union (str.to.re "777") (str.to.re "888")) (re.union (str.to.re "9") (str.to.re "a"))) (re.++ (re.+ (re.* (str.to.re "bb"))) (re.++ (re.* (re.+ (str.to.re "cc"))) (re.++ (re.+ (re.+ (str.to.re "ddd"))) (re.++ (re.union (re.+ (str.to.re "ee")) (re.+ (str.to.re "ff"))) (re.++ (re.union (re.* (str.to.re "gg")) (re.* (str.to.re "hh"))) (re.++ (re.* (re.* (str.to.re "i"))) (re.++ (re.* (re.+ (str.to.re "jj"))) (re.++ (re.+ (re.* (str.to.re "kk"))) (re.++ (re.union (re.* (str.to.re "ll")) (re.* (str.to.re "m"))) (re.++ (re.* (re.+ (str.to.re "n"))) (re.++ (re.union (re.* (str.to.re "oo")) (re.* (str.to.re "ppp"))) (re.++ (re.* (re.+ (str.to.re "qqq"))) (re.++ (re.union (re.+ (str.to.re "rr")) (re.+ (str.to.re "s"))) (re.++ (re.* (re.union (str.to.re "ttt") (str.to.re "uu"))) (re.++ (re.+ (re.union (str.to.re "v") (str.to.re "www"))) (re.++ (re.* (re.* (str.to.re "xx"))) (re.++ (re.* (re.* (str.to.re "y"))) (re.++ (re.union (re.+ (str.to.re "z")) (re.+ (str.to.re "AA"))) (re.++ (re.union (re.union (str.to.re "B") (str.to.re "CC")) (re.union (str.to.re "DDD") (str.to.re "E"))) (re.++ (re.* (re.* (str.to.re "FFF"))) (re.++ (re.* (re.* (str.to.re "GG"))) (re.++ (re.union (re.* (str.to.re "HH")) (re.* (str.to.re "III"))) (re.++ (re.* (re.* (str.to.re "JJJ"))) (re.++ (re.+ (re.* (str.to.re "K"))) (re.++ (re.* (re.* (str.to.re "L"))) (re.++ (re.+ (re.* (str.to.re "MM"))) (re.++ (re.* (re.* (str.to.re "NNN"))) (re.++ (re.+ (re.* (str.to.re "O"))) (re.++ (re.+ (re.union (str.to.re "P") (str.to.re "QQ"))) (re.++ (re.+ (re.* (str.to.re "R"))) (re.++ (re.* (re.union (str.to.re "SSS") (str.to.re "TTT"))) (re.++ (re.+ (re.+ (str.to.re "UUU"))) (re.++ (re.+ (re.+ (str.to.re "V"))) (re.++ (re.* (re.union (str.to.re "WWW") (str.to.re "XXX"))) (re.++ (re.union (re.* (str.to.re "YY")) (re.* (str.to.re "ZZZ"))) (re.++ (re.union (re.* (str.to.re "!!!")) (re.* (str.to.re """"""""))) (re.++ (re.union (re.union (str.to.re "##") (str.to.re "$")) (re.union (str.to.re "%") (str.to.re "&"))) (re.++ (re.* (re.* (str.to.re "''"))) (re.++ (re.* (re.union (str.to.re "(((") (str.to.re "))"))) (re.++ (re.* (re.* (str.to.re "*"))) (re.++ (re.* (re.* (str.to.re "+"))) (re.++ (re.* (re.union (str.to.re ",") (str.to.re "--"))) (re.++ (re.+ (re.union (str.to.re ".") (str.to.re "/"))) (re.++ (re.* (re.* (str.to.re ":"))) (re.++ (re.union (re.+ (str.to.re ";;;")) (re.+ (str.to.re "<<"))) (re.++ (re.union (re.+ (str.to.re "==")) (re.+ (str.to.re ">"))) (re.++ (re.union (re.* (str.to.re "???")) (re.* (str.to.re "@"))) (re.++ (re.* (re.* (str.to.re "[[["))) (re.++ (re.+ (re.+ (str.to.re "\\\\\\"))) (re.++ (re.union (re.+ (str.to.re "]]")) (re.+ (str.to.re "^^^"))) (re.++ (re.union (re.+ (str.to.re "___")) (re.+ (str.to.re "``"))) (re.++ (re.union (re.* (str.to.re "{{{")) (re.* (str.to.re "||"))) (re.++ (re.+ (re.+ (str.to.re "}}"))) (re.++ (re.* (re.+ (str.to.re "~"))) (re.++ (re.+ (re.union (str.to.re "00") (str.to.re "11"))) (re.++ (re.union (re.union (str.to.re "222") (str.to.re "33")) (re.union (str.to.re "444") (str.to.re "555"))) (re.++ (re.+ (re.union (str.to.re "6") (str.to.re "7"))) (re.++ (re.* (re.* (str.to.re "8"))) (re.++ (re.+ (re.* (str.to.re "99"))) (re.++ (re.union (re.union (str.to.re "aa") (str.to.re "bb")) (re.union (str.to.re "c") (str.to.re "dd"))) (re.++ (re.+ (re.union (str.to.re "ee") (str.to.re "f"))) (re.++ (re.+ (re.+ (str.to.re "gg"))) (re.++ (re.union (re.union (str.to.re "h") (str.to.re "i")) (re.union (str.to.re "j") (str.to.re "kkk"))) (re.++ (re.union (re.union (str.to.re "ll") (str.to.re "mmm")) (re.union (str.to.re "nn") (str.to.re "oo"))) (re.++ (re.union (re.* (str.to.re "ppp")) (re.* (str.to.re "qqq"))) (re.++ (re.+ (re.+ (str.to.re "r"))) (re.++ (re.union (re.* (str.to.re "sss")) (re.* (str.to.re "t"))) (re.++ (re.+ (re.+ (str.to.re "uuu"))) (re.++ (re.* (re.union (str.to.re "v") (str.to.re "www"))) (re.* (re.union (str.to.re "x") (str.to.re "yy")))))))))))))))))))))))))))))))))))))))))))))))))))))))))))))))))))))))))))))))))))))))))))))))))))))))))))))))))))))))))))))))))))))))))))))))))))))))))))))))))))))))))))))))))))))))))))
(check-sat)